
 102   30
  10   10   10   10   10   10   10   10   10   10   10   10   10   10   10   10   10   10   10   10   10   10   10   10   10   10   10   10   10   10

   0   0   0   0   0   0   0   0   0   0   0   0   0   0   0   0   0   0   0   0   0   0   0   0   0   0   0   0   0   0   0  22 2 3 4 5 6 7 8 9 10 11 12 13 14 15 16 17 18 19 20 21 25 32 
  10   0   2   0   0   0   2   0   0   0   0   0   0   2   0   0   0   0   0   0   5   1   0   0   0   0   0   0   0   0   0  19 101 99 72 71 61 59 54 51 50 49 48 46 45 43 41 39 33 30 27 
   2   0   0   0   0   0   0   0   1   0   0   0   0   0   0   0   1   0   0   0   0   7   0   0   0   0   0   0   0   0   0  12 72 63 62 59 57 50 49 46 39 26 24 23 
   5   0   0   0   0   0   0   0   0   0   0   0   0   0   0   0   0   0   0   0   0   0   0   0   4   1   0   0   0   0   0  13 100 99 63 62 56 54 52 49 43 35 34 33 22 
   6   0   0   0   1   0   0   1   0   0   0   2   3   0   0   0   0   0   0   0   6   0   0   0   3   0   0   0   0   0   0  17 101 100 71 70 69 63 62 59 58 54 51 49 46 42 38 34 28 
   2   0   0   0   0   0   0   0   0   0   0   0   0   0   0   1   0   0   0   0   0   0   0   0   8   0   0   0   0   0   0  16 100 99 69 68 62 61 59 56 54 52 48 46 44 43 40 27 
   5   0   0   4   0   0   0   0   0   4   2   6   0   0   1   0   0   0   4   0   0   0   0   0   0   0   0   0   0   1   0  18 99 98 97 69 68 63 62 61 59 58 56 54 49 48 44 41 36 33 
   5   0   0   0   0   0   0   0   0   0   0   0   0   0   0   0   0   1   8   0   3   0   0   0   0   0   1   0   0   0   0  14 73 69 66 63 62 60 57 50 49 46 44 43 37 34 
   3   0   5   0   0   0   0   0   0   0   0   5   0   0   0   6   0   0   0   0   0   0   0   0   0   5   0   0   0   0   0  20 100 99 96 95 73 69 68 67 63 61 60 59 58 57 54 53 52 46 42 41 
   8   3   0   0   0   0   4   0   0   0   0   0   0   0   0   0   0   0   0   0   0   0   0   0   0   0   0   0   0   0   0  14 98 72 71 63 62 59 58 57 55 54 49 41 31 29 
   9   5   4   0   0   0   0   0   0   6   0   0   0   0   0   0   0   5   3   0   0  10   0   0   0   0   0   0   0   0   0  10 99 95 72 70 69 61 59 42 33 28 
   6   6   0   0   0   0   0   0   0   0   0   0   0   0   0  10   0   0   0   3   0   0   0   0   0   0   0   0   0   0   0  16 99 98 97 96 86 72 71 70 69 68 63 59 57 55 53 35 
   6   0   0   0   0   1   0   0   0   0   0   0   0   0   0   0   0   0   0   0   0   0   0   0   0   0   0   0   0   0   0  19 101 95 92 90 86 81 70 68 67 66 64 63 62 60 58 57 53 48 42 
   4   0   0   0   0   0   0   0   0   0   0   0   5   0   0   0   0   0   0   0   0   0   0   0   0   0   0   0   0   0   0  19 98 97 90 87 86 72 71 70 69 68 67 66 63 61 60 58 57 54 53 
   2   0   0   5   7  10   0   0   0   0   0   0   0   0   0   0   0   0   0   0   0   0   0   1   0   7   0   0   2   0   0  16 100 96 90 86 83 73 69 67 66 62 61 60 58 54 53 42 
   3   0   0  10   0   8  10   0   0   0   0   0   0   0   0   0   0   0   0   0   0   0   1   0   0   0   0   0   0   0   0  11 98 96 95 94 72 69 68 61 58 43 33 
   9   4   0   0   0   0   0   8   0   0   0   0   0   0   0   4   9   3   0   0   0   0   0   0   0   0   0   0   6  10   0  17 96 95 94 91 90 87 86 85 83 69 68 66 65 64 60 50 43 
   6   0   0   0   0   0   0   0   0   0   0   0   0   0   0  10   0   0   0   0   0   0   0   0   0   0   0   0   0   0   0  23 101 98 97 96 95 92 90 88 87 86 85 82 81 80 71 69 68 66 63 61 60 58 57 
   9   0   0   0   0   0   0   3   0   0   0   0   0   0   0   9   0   0   0   3   0   0   0   0   0   0   0   0   0   0   1  17 98 95 88 87 86 85 81 73 72 71 67 66 63 62 57 55 48 
   5   0   0   5   0   0   0   0   0   0   0   0   0   3   0   0   0   0   0   0   0   0  10   0   7   0   0   0   0   0   0  20 100 96 95 93 92 90 89 87 86 81 79 78 72 70 67 65 64 60 57 53 
   2   0   0   0   0   0   0   0   0   0   0   0   0   0   0   0   0   0   0   0   0   5   0   0   0   7   0   0   0   0   0  18 100 99 97 96 92 88 86 82 81 72 70 67 66 61 60 58 57 49 
   7   0   0   0   0   0   0   0   0   0   0   7   0   0   5   0   0   0  10   0   0   0   0   0   0   0   0   0   0   7   0  15 98 97 92 88 87 86 85 76 72 69 68 65 58 55 47 
   8   0   5   0   0   0   0   0   0   0   0   0   0   0   0   0   0   0   0   0   0   0   0   0   0   0   0   0   0   0   0  11 99 92 88 70 66 65 61 60 48 44 41 
   6   0   4   0   0   5   0   0   0   0   0   0   0   9   0   0   0   0   0   0   6   0   0   0   0   0   0   0   0   0   0  25 101 100 98 97 95 92 91 90 89 88 87 86 83 82 81 80 79 73 71 69 68 66 65 64 60 
   7   0   0   0   0   0   0   6   0   0   0   0   0   0   0   0   0   0   0   0   0   0   0   0   0   0   0   0   0   0   0  14 98 95 93 92 89 83 68 67 65 64 62 59 53 49 
   5   0   0   0   0   0   0   0   0   3   0   0   8   0   0   0   0   0   0   0   6   0   0   0   0   0   0   0   0   0   6  17 96 95 93 91 90 89 87 84 83 80 79 78 71 65 60 54 53 
   6   0   0   0   7   0   7   0   0   0   0   4   0   0   0   0   0   0   0   0   0   6   0   0   0   0   0   0   0   0   0  14 96 95 93 92 87 86 84 81 67 64 60 58 57 53 
   3   0   0   0   0   0   0   3   0   0   0   0   9   0   0   0   0   0   0   0   0   0   0   0   7   0   8   0   5   0   0  10 97 96 92 89 81 68 64 60 57 41 
   5   0   0   0   0   0   0   0   0   0   0   0   0   0   6   0   0   0   0   0   4   0   9   0   0   0   0   0   0   0   0  18 97 96 95 93 91 90 87 86 85 84 82 80 79 74 68 65 61 60 
   7   0   6   0   0   0   0   0   0   0   4   9   0   0   0   0   0   0   0   0   0   8   0   0   0   7   0   0   0   0   0  17 100 97 94 91 90 88 86 85 84 83 81 80 74 69 68 63 60 
  10   0   0   0   0   0   0   0   0   0   7   0   0   9   0   0   0   6   0   0   0   0   0   0   0   0   0   0   0   0   6  19 101 99 97 95 94 93 92 91 89 86 85 83 82 81 78 76 74 69 65 
   6   0   0   0   0   0   9   0   0   0   0   0   0   0   0   0   4   0   0   0   0   0   0   0   0   0   0   0   0   0   0  17 99 94 92 91 89 88 86 85 84 83 81 80 77 74 68 62 60 
   1   0   0   0   0   0   0   0   0   0   0   0   0   0   7   6   5   0   0   6   0   2   0   0   0   0   0   0   0   0   0  14 93 90 89 88 87 86 85 82 81 79 73 67 64 57 
   9   0   0   0   0   0   0   0   0   0   0   0   0   7   0   0   0   0   0   0   0   0   0   0   0   0   0   0   0   0   0  12 92 91 89 88 87 86 83 81 75 65 64 48 
   6   0   0   0   0   0   0   7   0   9   0   4   0   3   0   0   5   0   0   0   0   0   0   0   0   0   0   0   7   0   0  15 95 94 92 91 90 88 87 85 83 82 79 78 66 64 60 
   3   0   5   8   0   0   0   0  10   0   0  10   0   0   5   0   0   8   0   0   0   0   0   0   0   0   0   0   2   0   0  11 92 89 88 86 81 80 79 78 70 60 57 
   7   0   0   0   0   0   0   6   9   0   0   6   0   0   7   0   0   0   0   8   0   0   0   0   7   0   0   0   0   0   0   8 101 95 87 85 84 78 71 51 
   4   0   4   0   0   0   0   0   0   0   0   0   0   0   5   0   0   0   0   0   0   0   0   0   0   0   0   0   0   0   0  14 99 90 89 88 86 85 82 81 79 78 76 72 67 64 
   2   0   0   0   0   0   0   0   0   0   0   0   0   0   4   0   8   0   0   0   0   0   0   0   0   0   0   0   0   0   0  13 92 88 87 83 82 81 79 77 74 69 68 66 60 
   3   0   6   0   0   0   0   0   0   0   0   0   0   0   4   0  10   0   0   0   0   0   0   0   0   0   0   0   0   4   0  13 92 90 88 87 84 82 81 80 79 78 77 64 60 
   3   0   0   0   0   0   0   0   0   0   0   0   6   0   0   0   0   0   0   0   0   0   0   6   0   0   0   0   0   0   0  13 94 93 91 90 87 86 85 82 80 78 76 75 74 
   5   0   0   0   0   0   0   6   0   4   0   0   0   0   0   0   0   0   0   0   0   0   0   0   0   0   0   0   0   0   0  12 98 97 93 89 87 85 84 79 76 75 74 65 
   7   0   0   0   0   0   0   3   0   0  10   0   0   0   0   4   0   0   0   0   0   0   0   0   0   0   0   0   0   0   0  11 93 92 89 88 82 81 80 78 76 75 70 
   4   0   0   0   0   0   0   0   0  10   0   0   0   6   0   0   0   0   0   0   0   0   0   0   0   0   0   0   6   0   0  10 96 89 87 86 85 83 81 77 75 64 
   4   0   0   0   6   0   0   0   0   0   0   0   0   4   0   0   0   0   0   0   0   0   0   0   3   0   0   2   0   0   0   9 88 87 86 85 80 79 77 74 60 
   5   0   0   0   0   0   0   0   0   0   0   0   0   0   0   0   0   0   7   0  10   0   5   0   0   0   0   0   0   0   0  10 98 97 86 82 79 78 77 76 75 74 
   3   0  10   0   0   0   0   0   0   0   0   0   0   9   0   0   0   0   8   0   0   0   0   6   0   0   0   0   0   0   7   9 95 94 91 82 81 80 79 78 66 
   9   0   0   0   5   0   0   0   0   0   0   0   0   0   0   0   0   0   0   2   0   8   0   0   0   0   0   0   7   0   0   9 96 94 93 82 80 79 77 76 74 
   3   0   0   0   0   0   0   8   0   9   0   0   0   4   0   0   0   0   7   0   0   0   0   0   0   0   0   0   0   0   0   9 90 87 85 79 78 77 76 75 74 
   9   0   0   7   0   0   0   0   0   0   0   0   0   0   8   0   0   0   0   0   0   0   0   7   0   0   0   0   0   0   0   8 100 97 84 79 78 77 74 67 
   8   5   0   0   0   0   0   0   0   0   0   0   0   0   0   0   0   0   3   0   0   8   0   0   0   0   0   0   0   0   9   8 93 86 82 81 79 76 75 67 
   4   0   8   4   5   0   0   0   0   0   0   0   7   0   0   0   0   0   0   0   0   0   0   0   0   0   0   2   4   0   0   8 94 90 83 80 78 75 71 65 
   4   0   0   0   7   0   0   0   0   0   0   0   0   3   0   0   0   0   0   0   0   0   0   0   0   0   6   0   0   0   0   7 94 88 85 82 76 75 74 
   8   0   3   0   6   0   9   0   0   0   0   0   0   0   0   0   0   0   0   0   0   0   0   0   0   0   0   7   0   0   9   6 92 88 81 76 75 64 
   9   0   0   6   0   5   0   0   0   0   0   0   2   0   0   0   0   0   0   0   0   0   0   0   0   0   0   0   0   8   0   6 93 90 89 83 80 78 
   7   0   0   0   0   0   0   0   0   0   0   0   0   0   0   0   0   9   0   0   0   6   0   8   8   0   0   0   0   0   0   6 95 83 82 81 77 76 
  10   0   0   0   0   0   0   0   0   0   0   0   0   0   0   0   0   0   0   7   0   0   0   6   0   0   0   0   0   0   0   5 91 83 77 75 74 
   1   0   0   0   0   0   0   5   0   4   0   0   0   0   0   0   0   0   0   0   0   0   0   0   0   0   5   0   7   0   0   4 79 78 77 74 
   3   0   0   0   0   0   4   0   0   0   0   6   0   0   0   0   0   0   0   0   0   0   0   0   0   0   0   0   0   0   0   3 81 74 66 
   7   0   0   0   0   8   0   0   0   0   0   0   0   0   4   0   0   0   0   0   0   0   0   0   0   0   0   0  10   0   0   2 76 75 
   9   0   0   7   0   0   0   0   0   0   5   0   0   0   0   0   0   7   0   0   0   0   0   0  10   0   9   0   0   0   7   2 89 78 
   4   0   0   6   6   0   0   0   3   0   0   0   0   0   0   0   0   0   4   0   0   0   0   0   0   0   0   0   5   0   0   2 79 76 
   3   0   6   0   0   0   0   0   0   0   0   0   0   0   0   0   0   0   8   0   0   0   0   6   0   0   0   0   0   0   4   1 65 
   9   0  10   0   0   0   0   0   0   5   0   0   0  10   8   0   0   0   0   0   0   0   0   0   0   0   6   0   7   0   0   1 74 
   3   6   0   0   0   6   0   0   0   0   0   0   0   0   0   6   0   0   0   0   7   0   0   0   0   0  10   0   0   0   0   1 77 
   5   0   5   0   0   0   5   7   0   8   0   0   0   0   0   0   6   0   0   0   0   6   0   0   0   0   0   8   0   0   6   1 84 
   6   0   0   3   0   0   0   0   0   0   0   0   0   0   7   0   0   0   0   0   0   0   0   0   5   0   0   0   0   4   0   1 80 
   9   0   0   0  10   0   0   7   0   0   0   0   0   0   0   0   0   9   0   6   0   0   0   0   0   0   0   0   0   0   0   1 78 
   9   0   0   7   4   0   0   5   0   8   0   6   7   6   0   0   0   0   0   0   8   0   0   0   0   0   0   0   0   0   0   1 75 
   8   0   0   0   0   0   0   0   0   0   8   4   0   0   4   0   0   0   5   0   0   0   0   4   0   0   8   0   0   0   6   1 84 
   3   0   0   0   0   0   0   0   0   0   0   0   0   0   0   0   0   0   0   0   0   0   0   0   0   0   0   0   5   0   7   1 77 
   4   0   6   0   0   0   0   0   0   0   0   0   0   0  10   0   0   0   0   0   0   0   0   0   0   0   0   0   0   0   0   1 83 
   9   0   0   4   0   0   0   0   0   0   0   5   0   0   0   0   0   0   0   0   0   0   0   9   0   0   0   0   0   0   0   1 78 
   1   0   0   0   0   0   0   9   0   0   0   0   0   0   0   0   0   0   0   0   0   0   0   0   4   0   0   0   0   0   0   1 102
   6   7   6   0   0   0   4   0   0   0   0   0   0   0   0   0   0   0   0   7   0   0   0   5   0   0   0   0   0   8   0   1 102
   4   0   0   0  10   4   0   0   6   0   7   0   0   0   0   0   0   0   0   0   0   0   0   5   0   8   0   0   0   0   0   1 102
   7   0   0   0   0   0   0   0   0   0   0   5   0   8   0   0   8   0   0   0   0   0   3   5   0   0   3   0   0   0   0   1 102
   9   0   0   0   6   7   7   0   0   0   0   0   0   0   0   6   0   3   0   0   5   0   0   0   0   0   0   0   0   0   0   1 102
   4   0   0   0   0   0   0   0   0   0   0   8   0   0   0   0   0   0   3   0   0   0   0   6   0   0   0   0   0   0   0   1 102
   1   0   0   0   0   0   5   7   0   0   0   3   0   0   8   0   0   0   0   0   0   6   0   0   0   0   0  10   0   0   0   1 102
   6   7   0   0   0   0   0   0   5   0   0   0   7   0   0   0   0   7   5   0   0   0   0   0   7   0   6   6   0   0   7   1 102
   6   0   0   0   0   6   0   0   6   0   5   0   0   0   0   0   0   0   0   0   0   0   0   0   0   0   0   0   0   0   0   1 102
   8   0   6   0   0   0   0   0   0   0   0   0   0   0  10   0   0   0   0   0   0   0   8  10   0   0   0   0   8   5   0   1 102
   7   7   0   0   2   0   0   0   0   0   0   0   3   0   0   0   0   0   0   0   0   5   0   0   0   0   0   0   0   0   0   1 102
   9   0   0   0   0   0   0   0   0   0   6   0   0   0   0   0   0   0   0   0   0   0   0   0   0   0   0   0   0   0   0   1 102
   7   0   0   0   0   0   0   0   0   0   0   0   0   7   0   0   0   0   0   0   0   0   0   0   0   0   0   0   0   0   0   1 102
   3   0   0   9   0   0   0   0   0   0   0   0   0   0   0   0   5   0   0   0   0   0   0   0   0   0   0   0   0   0   0   1 102
   7   0   0   0   0   0   0   0   0   0   0   0   0   0   0   0   0   7   7   0   0   0   0   0   0   0   0   0   0   0   0   1 102
   4   6   0   0   0   0   0   0   0   0   0   7   0   0   0   4   0   0   0   0   0   0   0   0   0   0   0   0   0   0   0   1 102
   4   0   0   5   0   0   0   0   0   0   0   0   0   0   0   0   0   0   0   5   0   0   0   0   0   0   0   7   0   0   0   1 102
   6   0   0   0   0   0   0   0   0   0   0   0   0   0   0   0   0   0   0   0   0   0   0   0   0   0   0   0   0   0   0   1 102
   9   3  10   0   0   0   0   8   6   0   8   0   5   0   0   0   4   0   0   0   0   5   0   0   0   0   0   0   9   0   0   1 102
   3   0   0   0   0   0   0   0   0   0   0   0   0   0   0   0   0   0   0   0   0   0   0   0   0   0   0  10   0   0   0   1 102
   8   0   0   0   0   0   0   9   0   0   0   0   0   0   0   0   0   7   0   0   0   7   0   0   0   0   0   5   0   0   3   1 102
   2  10   9   0   0   0   0   0   8   6   0   0   5   0   0   0   0   0   0   0   0   0   0   0   0   0   0   3   0   0   0   1 102
  10   0   0   0   0   0   0   0   0   0   0  10   0   0   0   0   0   6   0   0   0   0   0   0   0   0   0   0   0   0   0   1 102
   1   0   0   0   0   0   0   0   0   0   0   0   7   0   8   0   0   0   0   0   0   0   0   0   0   0   0   0   0   8   0   1 102
   3   0   0   0   0   0   0   0   0   0   4   7   0   0   5   0   7   0   8   9   0   0   0   0   0   7   0   0   0   5   0   1 102
  10   0   0   0   0   0   0   0   0   2   0   0  10   0   0   0   0   0   0   0   0   0   0   0   0   0   0   6   0   0   0   1 102
   3   0   0   0   8   0   0   0   0   0   0   0   0   0   4   0   0   0   0  10   0   0   0   0   5   0   4   0   0   0   0   1 102
   4   9   0   0   0   0   0   0   0   0   0   0   0   0   0   0   0   0   0   0   0   0   0   0   0   0   0   0   0   0   0   1 102
   0   0   0   0   0   0   0   0   0   0   0   0   0   0   0   0   0   0   0   0   0   0   0   0   0   0   0   0   0   0   0   0 
